(set-logic QF_S)
(declare-fun var0 () String)
(declare-fun var1 () String)
(declare-fun var2 () String)
(declare-fun var3 () String)
(declare-fun var4 () String)
(declare-fun var5 () String)
(declare-fun var6 () String)
(declare-fun var7 () String)
(declare-fun var8 () String)
(declare-fun var9 () String)
(declare-fun var10 () String)
(declare-fun var11 () String)
(declare-fun var12 () String)
(declare-fun var13 () String)
(declare-fun var14 () String)
(declare-fun var15 () String)
(declare-fun var16 () String)
(declare-fun var17 () String)
(declare-fun var18 () String)
(declare-fun var19 () String)
(declare-fun var20 () String)
(declare-fun var21 () String)
(declare-fun var22 () String)
(declare-fun var23 () String)
(declare-fun var24 () String)
(declare-fun var25 () String)
(declare-fun var26 () String)
(declare-fun var27 () String)
(declare-fun var28 () String)
(declare-fun var29 () String)
(declare-fun var30 () String)
(declare-fun var31 () String)
(declare-fun var32 () String)
(declare-fun var33 () String)
(declare-fun var34 () String)
(declare-fun var35 () String)
(declare-fun var36 () String)
(declare-fun var37 () String)
(declare-fun var38 () String)
(declare-fun var39 () String)
(declare-fun var40 () String)
(declare-fun var41 () String)
(declare-fun var42 () String)
(declare-fun var43 () String)
(declare-fun var44 () String)
(declare-fun var45 () String)
(declare-fun var46 () String)
(declare-fun var47 () String)
(declare-fun var48 () String)
(declare-fun var49 () String)
(declare-fun var50 () String)
(declare-fun var51 () String)
(declare-fun var52 () String)
(declare-fun var53 () String)
(declare-fun var54 () String)
(declare-fun var55 () String)
(declare-fun var56 () String)
(declare-fun var57 () String)
(declare-fun var58 () String)
(declare-fun var59 () String)
(declare-fun var60 () String)
(assert (= var0 (str.++ var1 var2)))
(assert (= var2 (str.++ var3 var4)))
(assert (= var4 (str.++ var5 var6)))
(assert (= var6 (str.++ var7 var8)))
(assert (= var8 (str.++ var9 var10)))
(assert (= var10 (str.++ var11 var12)))
(assert (= var12 (str.++ var13 var14)))
(assert (= var14 (str.++ var15 var16)))
(assert (= var16 (str.++ var17 var18)))
(assert (= var18 (str.++ var19 var20)))
(assert (= var20 (str.++ var21 var22)))
(assert (= var22 (str.++ var23 var24)))
(assert (= var24 (str.++ var25 var26)))
(assert (= var26 (str.++ var27 var28)))
(assert (= var28 (str.++ var29 var30)))
(assert (= var30 (str.++ var31 var32)))
(assert (= var32 (str.++ var33 var34)))
(assert (= var34 (str.++ var35 var36)))
(assert (= var36 (str.++ var37 var38)))
(assert (= var38 (str.++ var39 var40)))
(assert (= var40 (str.++ var41 var42)))
(assert (= var42 (str.++ var43 var44)))
(assert (= var44 (str.++ var45 var46)))
(assert (= var46 (str.++ var47 var48)))
(assert (= var48 (str.++ var49 var50)))
(assert (= var50 (str.++ var51 var52)))
(assert (= var52 (str.++ var53 var54)))
(assert (= var54 (str.++ var55 var56)))
(assert (= var56 (str.++ var57 var58)))
(assert (= var58 (str.++ var59 var60)))
(assert (= var0 "solution"))
(assert (= "P" (str.at var0 52)))
(assert (= "R" (str.at var39 482)))
(assert (= "W" (str.at var53 944)))
(assert (= "u" (str.at var17 665)))
(assert (= "5" (str.at var11 266)))
(assert (= "V" (str.at var53 937)))
(assert (= "=" (str.at var58 955)))
(assert (= "!" (str.at var29 432)))
(assert (= "z" (str.at var45 375)))
(assert (= "D" (str.at var42 771)))
(assert (= "A" (str.at var34 613)))
(assert (= "6" (str.at var44 832)))
(assert (= "c" (str.at var21 743)))
(assert (= "L" (str.at var31 479)))
(assert (= ":" (str.at var3 382)))
(assert (= "=" (str.at var28 493)))
(assert (= "F" (str.at var9 698)))
(assert (= "M" (str.at var35 440)))
(assert (= "?" (str.at var11 30)))
(assert (= "<" (str.at var44 868)))
(assert (= ">" (str.at var34 204)))
(assert (= "H" (str.at var19 493)))
(assert (= "v" (str.at var29 533)))
(assert (= "u" (str.at var18 278)))
(assert (= "b" (str.at var40 941)))
(assert (= "|" (str.at var11 722)))
(assert (= """" (str.at var5 319)))
(assert (= "m" (str.at var35 348)))
(assert (= "q" (str.at var39 952)))
(assert (= "`" (str.at var24 525)))
(assert (= "|" (str.at var50 753)))
(assert (= "a" (str.at var28 899)))
(assert (= "]" (str.at var21 335)))
(assert (= "k" (str.at var47 558)))
(assert (= "Y" (str.at var6 496)))
(assert (= "Q" (str.at var18 901)))
(assert (= "," (str.at var14 917)))
(assert (= "3" (str.at var39 559)))
(assert (= ")" (str.at var23 75)))
(assert (= "q" (str.at var15 855)))
(assert (= "B" (str.at var49 403)))
(assert (= ":" (str.at var40 630)))
(assert (= "(" (str.at var26 492)))
(assert (= ")" (str.at var5 441)))
(assert (= "p" (str.at var51 983)))
(assert (= "F" (str.at var0 214)))
(assert (= "L" (str.at var9 691)))
(assert (= "@" (str.at var50 861)))
(assert (= "}" (str.at var37 27)))
(assert (= "^" (str.at var51 311)))
(assert (= "O" (str.at var23 483)))
(assert (= "r" (str.at var51 184)))
(assert (= "0" (str.at var43 457)))
(assert (= "W" (str.at var9 91)))
(assert (= "s" (str.at var44 826)))
(assert (= "1" (str.at var32 356)))
(assert (= "G" (str.at var54 710)))
(assert (= "i" (str.at var12 708)))
(assert (= "\\" (str.at var35 713)))
(assert (= "N" (str.at var23 741)))
(assert (= "b" (str.at var20 957)))
(assert (= "p" (str.at var12 128)))
(assert (= "|" (str.at var16 224)))
(assert (= "x" (str.at var32 827)))
(assert (= "z" (str.at var20 965)))
(assert (= "," (str.at var5 70)))
(assert (= "@" (str.at var18 298)))
(assert (= "(" (str.at var30 329)))
(assert (= "#" (str.at var30 930)))
(assert (= "[" (str.at var12 83)))
(assert (= "s" (str.at var19 236)))
(assert (= "0" (str.at var60 853)))
(assert (= "q" (str.at var35 924)))
(assert (= "_" (str.at var56 987)))
(assert (= "o" (str.at var6 604)))
(assert (= "p" (str.at var46 484)))
(assert (= "5" (str.at var44 776)))
(assert (= "z" (str.at var10 471)))
(assert (= "t" (str.at var59 354)))
(assert (= "e" (str.at var37 602)))
(assert (= "f" (str.at var32 168)))
(assert (= ")" (str.at var8 82)))
(assert (= "w" (str.at var44 396)))
(assert (= "G" (str.at var27 32)))
(assert (= "u" (str.at var31 51)))
(assert (= "B" (str.at var7 556)))
(assert (= "\\" (str.at var15 690)))
(assert (= "g" (str.at var29 637)))
(assert (= "&" (str.at var40 449)))
(assert (= ")" (str.at var15 479)))
(assert (= "9" (str.at var46 898)))
(assert (= "!" (str.at var53 115)))
(assert (= "j" (str.at var54 872)))
(assert (= "`" (str.at var60 85)))
(assert (= "g" (str.at var45 77)))
(assert (= "s" (str.at var36 54)))
(assert (= "O" (str.at var2 375)))
(assert (= "D" (str.at var53 435)))
(assert (= "W" (str.at var47 927)))
(assert (= ":" (str.at var24 767)))
(assert (= "v" (str.at var3 799)))
(assert (= "@" (str.at var47 113)))
(assert (= ">" (str.at var4 355)))
(assert (= "|" (str.at var49 673)))
(assert (= "g" (str.at var3 727)))
(assert (= "8" (str.at var24 333)))
(assert (= "4" (str.at var60 297)))
(assert (= "x" (str.at var14 589)))
(assert (= "$" (str.at var13 701)))
(assert (= "2" (str.at var13 726)))
(assert (= "U" (str.at var51 115)))
(assert (= "E" (str.at var41 838)))
(assert (= "A" (str.at var55 261)))
(assert (= "R" (str.at var15 305)))
(assert (= "," (str.at var30 266)))
(assert (= "2" (str.at var34 181)))
(assert (= "&" (str.at var49 10)))
(assert (= "8" (str.at var59 774)))
(assert (= "#" (str.at var48 756)))
(assert (= "/" (str.at var7 394)))
(assert (= ">" (str.at var11 22)))
(assert (= "C" (str.at var3 832)))
(assert (= "R" (str.at var13 185)))
(assert (= "L" (str.at var9 178)))
(assert (= "s" (str.at var45 718)))
(assert (= "t" (str.at var25 210)))
(assert (= "0" (str.at var30 263)))
(assert (= "," (str.at var26 43)))
(assert (= ":" (str.at var11 729)))
(assert (= "-" (str.at var31 92)))
(assert (= "g" (str.at var3 813)))
(assert (= "." (str.at var48 945)))
(assert (= "k" (str.at var7 553)))
(assert (= "h" (str.at var13 735)))
(assert (= "L" (str.at var50 8)))
(assert (= "!" (str.at var44 768)))
(assert (= "y" (str.at var15 850)))
(assert (= "=" (str.at var35 45)))
(assert (= "I" (str.at var28 520)))
(assert (= "." (str.at var17 541)))
(assert (= "}" (str.at var42 274)))
(assert (= "Z" (str.at var7 264)))
(assert (= "'" (str.at var41 797)))
(assert (= "3" (str.at var42 280)))
(assert (= "<" (str.at var37 454)))
(assert (= "L" (str.at var16 222)))
(assert (= "(" (str.at var29 193)))
(assert (= "a" (str.at var18 498)))
(assert (= "]" (str.at var32 263)))
(assert (= "2" (str.at var50 799)))
(assert (= "+" (str.at var43 284)))
(assert (= "(" (str.at var49 210)))
(assert (= "C" (str.at var50 409)))
(assert (= "C" (str.at var17 137)))
(assert (= "t" (str.at var38 430)))
(assert (= "5" (str.at var5 414)))
(assert (= "}" (str.at var29 965)))
(assert (= "U" (str.at var42 872)))
(assert (= "-" (str.at var34 669)))
(assert (= "k" (str.at var36 177)))
(assert (= """" (str.at var60 164)))
(assert (= "<" (str.at var19 311)))
(assert (= "U" (str.at var42 652)))
(assert (= "m" (str.at var47 767)))
(assert (= "Q" (str.at var46 494)))
(assert (= "<" (str.at var26 384)))
(assert (= "w" (str.at var38 468)))
(assert (= "-" (str.at var21 840)))
(assert (= "/" (str.at var19 639)))
(assert (= "G" (str.at var34 816)))
(assert (= "Z" (str.at var46 325)))
(assert (= "!" (str.at var30 842)))
(assert (= "t" (str.at var26 891)))
(assert (= "<" (str.at var41 47)))
(assert (= "Z" (str.at var50 854)))
(assert (= "," (str.at var26 691)))
(assert (= "'" (str.at var57 470)))
(assert (= "o" (str.at var56 73)))
(assert (= "K" (str.at var35 445)))
(assert (= "n" (str.at var2 835)))
(assert (= "`" (str.at var28 194)))
(assert (= "`" (str.at var32 765)))
(assert (= "7" (str.at var22 804)))
(assert (= "W" (str.at var12 114)))
(assert (= "K" (str.at var12 102)))
(assert (= "q" (str.at var30 520)))
(assert (= "_" (str.at var40 414)))
(assert (= "V" (str.at var10 997)))
(assert (= "3" (str.at var30 28)))
(assert (= "7" (str.at var18 395)))
(assert (= "K" (str.at var58 248)))
(assert (= "J" (str.at var52 296)))
(assert (= "s" (str.at var32 516)))
(assert (= "~" (str.at var21 53)))
(assert (= "c" (str.at var15 18)))
(assert (= "@" (str.at var7 335)))
(assert (= "k" (str.at var23 284)))
(assert (= "?" (str.at var34 316)))
(assert (= "~" (str.at var18 748)))
(assert (= "*" (str.at var9 31)))
(assert (= "(" (str.at var17 320)))
(assert (= "u" (str.at var29 792)))
(assert (= "I" (str.at var52 799)))
(assert (= "K" (str.at var30 100)))
(assert (= "W" (str.at var29 217)))
(assert (= "6" (str.at var29 737)))
(assert (= "9" (str.at var58 126)))
(assert (= "C" (str.at var50 139)))
(assert (= "," (str.at var52 534)))
(assert (= "*" (str.at var34 766)))
(assert (= "$" (str.at var7 893)))
(assert (= "_" (str.at var43 999)))
(assert (= "m" (str.at var30 359)))
(assert (= "R" (str.at var24 739)))
(assert (= "-" (str.at var36 584)))
(assert (= "H" (str.at var28 25)))
(assert (= "t" (str.at var59 47)))
(assert (= "d" (str.at var4 529)))
(assert (= "m" (str.at var48 638)))
(assert (= "*" (str.at var19 420)))
(assert (= "I" (str.at var26 332)))
(assert (= "0" (str.at var51 61)))
(assert (= "&" (str.at var23 197)))
(assert (= "@" (str.at var39 115)))
(assert (= "x" (str.at var10 559)))
(assert (= "M" (str.at var54 568)))
(assert (= "P" (str.at var20 554)))
(assert (= "P" (str.at var4 226)))
(assert (= "5" (str.at var29 165)))
(assert (= "t" (str.at var17 562)))
(assert (= "c" (str.at var57 848)))
(assert (= "m" (str.at var17 253)))
(assert (= ">" (str.at var60 885)))
(assert (= "R" (str.at var47 421)))
(assert (= "E" (str.at var42 13)))
(assert (= "s" (str.at var40 565)))
(assert (= "%" (str.at var35 67)))
(assert (= "T" (str.at var37 945)))
(assert (= "b" (str.at var58 355)))
(assert (= "F" (str.at var54 595)))
(assert (= "L" (str.at var26 344)))
(assert (= "c" (str.at var28 356)))
(assert (= "e" (str.at var29 572)))
(assert (= "4" (str.at var0 707)))
(assert (= "]" (str.at var40 438)))
(assert (= "l" (str.at var9 248)))
(assert (= "." (str.at var36 940)))
(assert (= "$" (str.at var43 346)))
(assert (= "H" (str.at var14 614)))
(assert (= ">" (str.at var25 686)))
(assert (= "Y" (str.at var27 697)))
(assert (= "h" (str.at var52 298)))
(assert (= "2" (str.at var6 410)))
(assert (= "J" (str.at var17 919)))
(assert (= "b" (str.at var40 79)))
(assert (= ":" (str.at var47 491)))
(assert (= "_" (str.at var48 76)))
(assert (= "R" (str.at var21 309)))
(assert (= "C" (str.at var4 67)))
(assert (= "Q" (str.at var57 394)))
(assert (= ":" (str.at var12 123)))
(assert (= "T" (str.at var13 155)))
(assert (= "g" (str.at var17 643)))
(assert (= "G" (str.at var40 856)))
(assert (= "^" (str.at var36 516)))
(assert (= "p" (str.at var27 710)))
(assert (= "_" (str.at var33 750)))
(assert (= "M" (str.at var39 379)))
(assert (= "g" (str.at var6 291)))
(assert (= "W" (str.at var31 655)))
(assert (= """" (str.at var10 760)))
(assert (= "M" (str.at var28 573)))
(assert (= "T" (str.at var32 289)))
(assert (= "c" (str.at var10 906)))
(assert (= "k" (str.at var28 838)))
(assert (= "/" (str.at var10 639)))
(assert (= "'" (str.at var54 754)))
(assert (= "T" (str.at var54 476)))
(assert (= "R" (str.at var14 13)))
(assert (= "[" (str.at var23 466)))
(assert (= "7" (str.at var43 443)))
(assert (= "1" (str.at var46 191)))
(assert (= "X" (str.at var18 644)))
(assert (= "&" (str.at var22 627)))
(assert (= "M" (str.at var2 407)))
(assert (= "L" (str.at var2 221)))
(assert (= "S" (str.at var34 824)))
(assert (= "*" (str.at var43 203)))
(assert (= "f" (str.at var37 604)))
(assert (= "R" (str.at var7 489)))
(assert (= "y" (str.at var16 398)))
(assert (= "U" (str.at var54 354)))
(assert (= "[" (str.at var3 207)))
(assert (= "]" (str.at var54 735)))
(assert (= "R" (str.at var26 965)))
(assert (= "g" (str.at var57 783)))
(assert (= "I" (str.at var0 923)))
(assert (= "7" (str.at var46 146)))
(assert (= "d" (str.at var60 109)))
(assert (= "V" (str.at var27 778)))
(assert (= "`" (str.at var19 959)))
(assert (= "P" (str.at var2 361)))
(assert (= "W" (str.at var40 43)))
(assert (= "$" (str.at var39 234)))
(assert (= "b" (str.at var21 753)))
(assert (= "U" (str.at var22 241)))
(assert (= "8" (str.at var51 354)))
(assert (= "x" (str.at var6 155)))
(assert (= "^" (str.at var17 902)))
(assert (= "5" (str.at var35 342)))
(assert (= "_" (str.at var54 736)))
(assert (= "2" (str.at var2 48)))
(assert (= """" (str.at var39 618)))
(assert (= "l" (str.at var35 950)))
(assert (= "'" (str.at var10 770)))
(assert (= "J" (str.at var8 459)))
(assert (= "4" (str.at var0 155)))
(assert (= "?" (str.at var29 828)))
(assert (= "Z" (str.at var40 936)))
(assert (= "_" (str.at var49 219)))
(assert (= "o" (str.at var38 373)))
(assert (= "T" (str.at var54 841)))
(assert (= "!" (str.at var35 311)))
(assert (= "V" (str.at var3 540)))
(assert (= "8" (str.at var1 412)))
(assert (= "," (str.at var29 195)))
(assert (= "!" (str.at var57 556)))
(assert (= "]" (str.at var26 587)))
(assert (= "@" (str.at var36 810)))
(assert (= "~" (str.at var25 611)))
(assert (= "L" (str.at var13 645)))
(assert (= "~" (str.at var47 804)))
(assert (= "B" (str.at var12 173)))
(assert (= "e" (str.at var9 568)))
(assert (= "}" (str.at var6 359)))
(assert (= ">" (str.at var12 426)))
(assert (= ")" (str.at var9 374)))
(assert (= "Q" (str.at var17 912)))
(assert (= "g" (str.at var17 959)))
(assert (= "z" (str.at var43 330)))
(assert (= "v" (str.at var44 376)))
(assert (= "z" (str.at var30 342)))
(assert (= "u" (str.at var41 807)))
(assert (= "2" (str.at var59 114)))
(assert (= "L" (str.at var29 532)))
(assert (= "z" (str.at var54 231)))
(assert (= "+" (str.at var36 327)))
(assert (= "M" (str.at var57 136)))
(assert (= "A" (str.at var33 100)))
(assert (= "/" (str.at var34 165)))
(assert (= "$" (str.at var59 811)))
(assert (= "+" (str.at var0 542)))
(assert (= "V" (str.at var24 183)))
(assert (= "l" (str.at var42 336)))
(assert (= "b" (str.at var0 503)))
(assert (= "]" (str.at var2 56)))
(assert (= "<" (str.at var45 538)))
(assert (= "i" (str.at var20 35)))
(assert (= "V" (str.at var9 357)))
(assert (= "\\" (str.at var24 401)))
(assert (= "p" (str.at var53 601)))
(assert (= "`" (str.at var53 644)))
(assert (= "p" (str.at var37 322)))
(assert (= "&" (str.at var25 880)))
(assert (= "5" (str.at var27 646)))
(assert (= "x" (str.at var29 491)))
(assert (= "v" (str.at var20 495)))
(assert (= "s" (str.at var49 431)))
(assert (= "O" (str.at var13 732)))
(assert (= "U" (str.at var13 269)))
(assert (= "C" (str.at var49 523)))
(assert (= "<" (str.at var10 410)))
(assert (= ">" (str.at var18 185)))
(assert (= "A" (str.at var56 358)))
(assert (= "0" (str.at var43 934)))
(assert (= "U" (str.at var56 611)))
(assert (= "T" (str.at var25 358)))
(assert (= "c" (str.at var14 607)))
(assert (= "!" (str.at var50 41)))
(assert (= ")" (str.at var39 534)))
(assert (= "q" (str.at var41 466)))
(assert (= "9" (str.at var8 630)))
(assert (= "$" (str.at var36 466)))
(assert (= ":" (str.at var5 637)))
(assert (= "*" (str.at var45 771)))
(assert (= "B" (str.at var6 921)))
(assert (= "h" (str.at var48 728)))
(assert (= "&" (str.at var52 615)))
(assert (= "i" (str.at var2 370)))
(assert (= "e" (str.at var48 893)))
(assert (= "J" (str.at var15 418)))
(assert (= "]" (str.at var29 520)))
(assert (= "%" (str.at var3 753)))
(assert (= "u" (str.at var57 126)))
(assert (= "C" (str.at var10 391)))
(assert (= "T" (str.at var32 478)))
(assert (= "E" (str.at var40 973)))
(assert (= "Q" (str.at var0 559)))
(assert (= "j" (str.at var13 84)))
(assert (= "5" (str.at var27 190)))
(assert (= ">" (str.at var17 86)))
(assert (= "m" (str.at var0 174)))
(assert (= "p" (str.at var11 891)))
(assert (= "y" (str.at var45 315)))
(assert (= "0" (str.at var46 166)))
(assert (= "0" (str.at var44 671)))
(assert (= "z" (str.at var31 522)))
(assert (= "b" (str.at var39 537)))
(assert (= "." (str.at var7 519)))
(assert (= "y" (str.at var27 945)))
(assert (= "b" (str.at var60 865)))
(assert (= "f" (str.at var20 148)))
(assert (= "M" (str.at var29 728)))
(assert (= "Z" (str.at var7 321)))
(assert (= "C" (str.at var38 24)))
(assert (= "H" (str.at var55 615)))
(assert (= "~" (str.at var5 639)))
(assert (= "9" (str.at var50 837)))
(assert (= "X" (str.at var56 870)))
(assert (= "O" (str.at var5 821)))
(assert (= "G" (str.at var36 324)))
(assert (= "^" (str.at var8 943)))
(assert (= "-" (str.at var0 475)))
(assert (= "\\" (str.at var21 758)))
(assert (= "O" (str.at var24 0)))
(assert (= "T" (str.at var13 851)))
(assert (= "V" (str.at var30 832)))
(assert (= "Z" (str.at var19 845)))
(assert (= "T" (str.at var10 422)))
(assert (= "J" (str.at var30 614)))
(assert (= "z" (str.at var33 284)))
(assert (= "*" (str.at var17 52)))
(assert (= "s" (str.at var36 512)))
(assert (= "k" (str.at var25 215)))
(assert (= "`" (str.at var43 848)))
(assert (= "+" (str.at var22 188)))
(assert (= "=" (str.at var45 785)))
(assert (= "&" (str.at var45 69)))
(assert (= "X" (str.at var33 293)))
(assert (= "(" (str.at var7 548)))
(assert (= "4" (str.at var40 706)))
(assert (= "*" (str.at var14 969)))
(assert (= "|" (str.at var42 542)))
(assert (= "P" (str.at var1 308)))
(assert (= "n" (str.at var2 71)))
(assert (= ":" (str.at var11 16)))
(assert (= "]" (str.at var47 463)))
(assert (= "J" (str.at var18 60)))
(assert (= "T" (str.at var34 152)))
(assert (= "^" (str.at var46 174)))
(assert (= "N" (str.at var46 352)))
(assert (= "." (str.at var39 426)))
(assert (= "e" (str.at var47 935)))
(assert (= "-" (str.at var17 242)))
(assert (= "x" (str.at var18 106)))
(assert (= "S" (str.at var53 906)))
(assert (= "$" (str.at var25 25)))
(assert (= "b" (str.at var55 513)))
(assert (= "D" (str.at var58 934)))
(assert (= "E" (str.at var12 712)))
(assert (= "~" (str.at var5 816)))
(assert (= "T" (str.at var31 438)))
(assert (= "|" (str.at var38 44)))
(assert (= "9" (str.at var3 476)))
(assert (= "V" (str.at var15 440)))
(assert (= "g" (str.at var60 483)))
(assert (= "w" (str.at var15 424)))
(assert (= "5" (str.at var32 511)))
(assert (= "X" (str.at var17 493)))
(assert (= "g" (str.at var21 722)))
(assert (= "L" (str.at var6 523)))
(assert (= ":" (str.at var39 61)))
(assert (= "p" (str.at var36 792)))
(assert (= "," (str.at var25 357)))
(assert (= "," (str.at var60 977)))
(assert (= "q" (str.at var29 625)))
(assert (= "s" (str.at var34 473)))
(assert (= "=" (str.at var42 548)))
(assert (= "0" (str.at var17 134)))
(assert (= "\\" (str.at var25 642)))
(assert (= "8" (str.at var44 31)))
(assert (= "Z" (str.at var14 892)))
(assert (= "<" (str.at var25 762)))
(assert (= "_" (str.at var49 979)))
(assert (= ")" (str.at var31 22)))
(assert (= "b" (str.at var2 104)))
(assert (= "0" (str.at var43 565)))
(assert (= "&" (str.at var57 292)))
(assert (= "d" (str.at var0 517)))
(assert (= "*" (str.at var51 836)))
(assert (= "8" (str.at var10 583)))
(assert (= "D" (str.at var4 610)))
(assert (= "o" (str.at var54 538)))
(assert (= "Z" (str.at var39 747)))
(assert (= "s" (str.at var24 666)))
(assert (= "|" (str.at var2 68)))
(assert (= "g" (str.at var58 402)))
(assert (= "A" (str.at var12 572)))
(assert (= ">" (str.at var28 877)))
(assert (= "I" (str.at var53 782)))
(assert (= "%" (str.at var27 199)))
(assert (= "T" (str.at var43 603)))
(assert (= "t" (str.at var19 22)))
(assert (= "p" (str.at var49 24)))
(assert (= "F" (str.at var13 570)))
(assert (= "q" (str.at var45 594)))
(assert (= "h" (str.at var33 485)))
(assert (= "!" (str.at var31 650)))
(assert (= "o" (str.at var56 341)))
(assert (= "x" (str.at var32 864)))
(assert (= "~" (str.at var9 818)))
(assert (= "j" (str.at var31 65)))
(assert (= ">" (str.at var29 197)))
(assert (= "," (str.at var40 434)))
(assert (= "6" (str.at var34 410)))
(assert (= ":" (str.at var29 18)))
(assert (= "t" (str.at var25 415)))
(assert (= "F" (str.at var53 18)))
(assert (= "h" (str.at var9 494)))
(assert (= "," (str.at var15 324)))
(assert (= ";" (str.at var9 256)))
(assert (= ")" (str.at var60 59)))
(assert (= "{" (str.at var39 613)))
(assert (= "f" (str.at var32 188)))
(assert (= "&" (str.at var59 277)))
(assert (= "O" (str.at var6 679)))
(assert (= "r" (str.at var50 538)))
(assert (= ")" (str.at var40 296)))
(assert (= "k" (str.at var37 619)))
(assert (= "7" (str.at var46 440)))
(assert (= "&" (str.at var20 112)))
(assert (= "u" (str.at var31 150)))
(assert (= "{" (str.at var3 621)))
(assert (= "Z" (str.at var54 664)))
(assert (= "f" (str.at var48 22)))
(assert (= "r" (str.at var15 282)))
(assert (= "v" (str.at var42 314)))
(assert (= ")" (str.at var46 194)))
(assert (= "0" (str.at var44 861)))
(assert (= "@" (str.at var40 632)))
(assert (= "/" (str.at var54 909)))
(assert (= "^" (str.at var42 116)))
(assert (= "T" (str.at var33 764)))
(assert (= "@" (str.at var49 98)))
(assert (= "r" (str.at var42 441)))
(assert (= "r" (str.at var46 628)))
(assert (= "r" (str.at var47 470)))
(assert (= "`" (str.at var54 48)))
(assert (= "N" (str.at var16 983)))
(assert (= "?" (str.at var14 36)))
(assert (= "H" (str.at var20 226)))
(assert (= "W" (str.at var59 228)))
(assert (= "0" (str.at var6 297)))
(assert (= "R" (str.at var21 642)))
(assert (= "p" (str.at var26 393)))
(assert (= "'" (str.at var33 358)))
(assert (= "k" (str.at var55 216)))
(assert (= "{" (str.at var51 225)))
(assert (= "i" (str.at var3 934)))
(assert (= "(" (str.at var53 885)))
(assert (= "U" (str.at var29 358)))
(check-sat)